Selected objective sense:  MINIMIZE
Selected objective  name:  OBJ
Selected RHS        name:  RHS1
Selected bound      name:  BND1
CPXPARAM_Preprocessing_Presolve                  0
CPXPARAM_LPMethod                                4
CPXPARAM_Threads                                 1
CPXPARAM_SolutionType                            2
CPXPARAM_TimeLimit                               3600
Tried aggregator 0 times.
Reduced presolve eliminated 603 rows and 603 columns.
Reduced LP has 1493 rows, 4149 columns, and 173213 nonzeros.
Presolve time = 0.04 sec. (46.86 ticks)
Parallel mode: none, using 1 thread for barrier
Number of nonzeros in lower triangle of A*A' = 66234
Using Approximate Minimum Degree ordering
Total time for automatic ordering = 0.01 sec. (29.63 ticks)
Summary statistics for Cholesky factor:
  Rows in Factor            = 1493
  Integer space required    = 64295
  Total non-zeros in factor = 68855
  Total FP ops to factor    = 3307597
 Itn      Primal Obj        Dual Obj  Prim Inf Upper Inf  Dual Inf Inf Ratio
   0   3.5427556e+08  -2.7820249e+06  5.76e+07  0.00e+00  1.37e+05  1.00e+00
   1   8.5299222e+07  -3.3858353e+06  1.43e+07  3.99e-12  1.17e+03  1.18e-03
   2   8.6355456e+06  -6.9303079e+05  1.45e+06  2.84e-12  2.24e+02  3.47e-03
   3   2.2061533e+06  -2.8062202e+05  3.78e+05  3.44e-12  7.96e+01  5.74e-03
   4   1.0195706e+06  -2.1982588e+05  1.89e+05  8.36e-12  3.99e+01  4.39e-03
   5   1.6140576e+05  -1.3971691e+05  4.26e+04  8.63e-12  1.55e+01  8.35e-03
   6   6.8180770e+03  -1.2508224e+04  2.01e+03  3.99e-12  1.30e+00  1.71e-01
   7   6.1945199e+03   4.9029997e+03  1.09e+00  5.93e-12  8.96e-02  2.43e+00
   8   6.1759799e+03   5.8274452e+03  7.46e-01  4.19e-12  2.24e-02  1.30e+01
   9   6.1564709e+03   6.0204812e+03  5.83e-01  4.77e-12  5.72e-03  4.76e+01
  10   6.1372151e+03   6.0506770e+03  4.37e-01  5.98e-12  2.80e-03  8.18e+01
  11   6.1330188e+03   6.0656844e+03  3.86e-01  1.00e-11  1.97e-03  1.06e+02
  12   6.1252332e+03   6.0834311e+03  3.00e-01  1.77e-11  8.86e-04  1.84e+02
  13   6.1160473e+03   6.0905828e+03  2.01e-01  1.10e-11  4.30e-04  2.92e+02
  14   6.1106041e+03   6.0949274e+03  1.31e-01  1.01e-11  2.43e-04  4.39e+02
  15   6.1081892e+03   6.0983760e+03  9.71e-02  7.01e-12  1.09e-04  7.76e+02
  16   6.1058184e+03   6.1003514e+03  6.34e-02  3.17e-12  3.70e-05  1.81e+03
  17   6.1042499e+03   6.1012387e+03  4.06e-02  5.07e-12  7.29e-06  5.35e+03
  18   6.1031552e+03   6.1013192e+03  2.53e-02  2.09e-12  1.70e-06  6.00e+03
  19   6.1025564e+03   6.1015304e+03  1.55e-02  2.67e-12  4.39e-07  1.71e+04
  20   6.1022028e+03   6.1015372e+03  1.01e-02  4.35e-12  1.10e-07  1.64e+04
  21   6.1017085e+03   6.1015606e+03  1.70e-03  5.97e-12  7.42e-08  2.10e+04
  22   6.1016684e+03   6.1015990e+03  5.47e-04  2.60e-12  4.21e-08  3.98e+04
  23   6.1016467e+03   6.1016343e+03  9.63e-05  7.46e-12  7.69e-09  2.37e+05
  24   6.1016427e+03   6.1016410e+03  2.40e-05  1.05e-11  5.09e-10  4.51e+06
  25   6.1016415e+03   6.1016413e+03  1.93e-06  4.24e-12  1.49e-10  2.89e+07
  26   6.1016414e+03   6.1016414e+03  1.38e-07  7.04e-12  1.65e-10  1.10e+10
Barrier time = 0.30 sec. (820.43 ticks)

Total time on 1 threads = 0.30 sec. (820.43 ticks)
Solve time: 0.29637722
Barrier iterations: 26
